NAME: Tnm82
COMMENT: Recalculated optimal tour for Tnm82, using concorde got a tour of length 1062686.0
TYPE: TOUR
DIMENSION: 82
TOUR_SECTION:
1
62
4
7
65
68
10
13
16
19
22
25
28
31
71
74
77
80
82
79
81
78
75
72
69
34
37
40
43
46
49
52
66
63
55
58
2
5
8
11
14
17
20
23
26
29
32
35
38
41
44
76
73
70
67
64
47
50
53
61
56
59
3
6
9
12
15
18
21
24
27
30
33
36
39
42
45
48
51
54
57
60 
-1
EOF
